 vasp.6.2.1 16May21 (build Aug  6 2022 02:00:27) complex
 executed on             LinuxGNU date 2022.09.17  15:06:20

 INCAR:
   SYSTEM = MOF
   ISTART = 0
   ICHARG = 2
   LWAVE = .FALSE.
   LCHARG = .TRUE.
   LAECHG = .TRUE.
   NELMIN = 5
   NELMDL = -3
   NELM = 100
   ALGO = FAST
   EDIFF = 1E-05
   ISMEAR = 0
   SIGMA = 0.05
   ENCUT = 520
   LREAL = Auto
   PREC = Normal
   GGA_COMPAT = .FALSE.
   LMAXMIX = 6
   NSW = 0
   ISIF = 2
   IBRION = -1
   ISYM = 2
   ISPIN = 1
   LPLANE = .TRUE.
   NCORE = 8
   NSIM = 4

 POTCAR:    PAW_PBE C 08Apr2002
 POTCAR:    PAW_PBE H 15Jun2001
 POTCAR:    PAW_PBE In 08Apr2002
 POTCAR:    PAW_PBE O 08Apr2002
 POTCAR:    PAW_PBE S 06Sep2000
 POTCAR:    PAW_PBE C 08Apr2002
   VRHFIN =C: s2p2

   TITEL  = PAW_PBE C 08Apr2002
   POMASS =   12.011; ZVAL   =    4.000    mass and valenz
   ENMAX  =  400.000; ENMIN  =  300.000 eV

 POTCAR:    PAW_PBE H 15Jun2001
   VRHFIN =H: ultrasoft test

   TITEL  = PAW_PBE H 15Jun2001
   POMASS =    1.000; ZVAL   =    1.000    mass and valenz
   ENMAX  =  250.000; ENMIN  =  200.000 eV

 POTCAR:    PAW_PBE In 08Apr2002
   VRHFIN =In: s2p1

[...]

 POTCAR:    PAW_PBE O 08Apr2002
   VRHFIN =O: s2p4

   TITEL  = PAW_PBE O 08Apr2002
   POMASS =   16.000; ZVAL   =    6.000    mass and valenz
   ENMAX  =  400.000; ENMIN  =  300.000 eV

 POTCAR:    PAW_PBE S 06Sep2000
   VRHFIN =S : s2p4

   TITEL  = PAW_PBE S 06Sep2000
   POMASS =   32.066; ZVAL   =    6.000    mass and valenz
   ENMAX  =  258.689; ENMIN  =  194.016 eV

 Optimization of the real space projectors (new method)

 maximal supplied QI-value         = 25.13
 optimisation between [QCUT,QGAM] = [ 11.56, 23.12] = [ 37.43,149.72] Ry
 Optimized for a Real-space Cutoff    1.04 Angstroem

   l    n(q)    QCUT    max X(q) W(low)/X(q) W(high)/X(q)  e(spline)
   0      7    11.561   115.676    0.20E-03    0.60E-03    0.21E-06
   0      7    11.561    87.132    0.20E-03    0.59E-03    0.21E-06
   1      7    11.561     4.429    0.23E-03    0.35E-03    0.15E-06
   1      7    11.561     2.733    0.18E-03    0.25E-03    0.12E-06
 Optimization of the real space projectors (new method)

[...]

   l    n(q)    QCUT    max X(q) W(low)/X(q) W(high)/X(q)  e(spline)
   0      7    11.635    20.381    0.14E-03    0.49E-03    0.18E-06
   0      7    11.635    15.268    0.16E-03    0.52E-03    0.19E-06
   1      7    11.635     5.964    0.30E-03    0.44E-03    0.22E-06
   1      7    11.635     5.382    0.27E-03    0.34E-03    0.19E-06
 Optimization of the real space projectors (new method)

 maximal supplied QI-value         = 19.84
 optimisation between [QCUT,QGAM] = [ 11.51, 23.22] = [ 37.09,150.92] Ry
 Optimized for a Real-space Cutoff    1.18 Angstroem

   l    n(q)    QCUT    max X(q) W(low)/X(q) W(high)/X(q)  e(spline)
   0      8    11.508   187.594    0.17E-03    0.26E-03    0.48E-07
   0      8    11.508   164.243    0.17E-03    0.26E-03    0.48E-07
   1      8    11.508    67.533    0.38E-03    0.13E-03    0.91E-07
   1      8    11.508    50.729    0.37E-03    0.12E-03    0.89E-07
  PAW_PBE C 08Apr2002                   :
  PAW_PBE H 15Jun2001                   :
  PAW_PBE In 08Apr2002                  :
  PAW_PBE O 08Apr2002                   :
  PAW_PBE S 06Sep2000                   :

 POSCAR: ABEXEN_clean
  positions in cartesian coordinates
 exchange correlation table for  LEXCH =        8
   RHO(1)=    0.500       N(1)  =     2000
   RHO(2)=  100.500       N(2)  =     4000

 ion  position               nearest neighbor table
   1  0.661  0.183  0.085- 374 1.24 373 1.27   2 1.49 361 2.63
   2  0.647  0.193  0.134-   4 1.37   3 1.39   1 1.49
   3  0.673  0.181  0.172- 241 0.93   2 1.39   5 1.40
   4  0.606  0.215  0.142- 242 0.93   2 1.37   6 1.39
   5  0.656  0.187  0.218- 243 0.93   7 1.38   3 1.40
   6  0.590  0.221  0.187- 244 0.93   7 1.38   4 1.39
   7  0.614  0.207  0.226-   6 1.38   5 1.38  77 1.49
   8  0.817  0.478  0.085- 376 1.24 375 1.27   9 1.49 362 2.63
   9  0.807  0.453  0.134-  11 1.37  10 1.39   8 1.49
  10  0.819  0.492  0.172- 245 0.93   9 1.39  12 1.40
  11  0.785  0.392  0.142- 246 0.93   9 1.37  13 1.39
  12  0.813  0.469  0.218- 247 0.93  14 1.38  10 1.40
  13  0.779  0.369  0.187- 248 0.93  14 1.38  11 1.39
  14  0.794  0.408  0.226-  13 1.38  12 1.38  70 1.49
  15  0.522  0.339  0.085- 378 1.24 377 1.27  16 1.49 363 2.63
  16  0.547  0.353  0.134-  18 1.37  17 1.39  15 1.49
  17  0.508  0.327  0.172- 249 0.93  16 1.39  19 1.40
  18  0.608  0.394  0.142- 250 0.93  16 1.37  20 1.39
  19  0.531  0.344  0.218- 251 0.93  21 1.38  17 1.40
  20  0.631  0.410  0.187- 252 0.93  21 1.38  18 1.39
  21  0.592  0.386  0.226-  20 1.38  19 1.38  84 1.49
  22  0.339  0.817  0.085- 380 1.24 379 1.27  23 1.49 364 2.63
  23  0.353  0.807  0.134-  25 1.37  24 1.39  22 1.49
  24  0.327  0.819  0.172- 253 0.93  23 1.39  26 1.40
  25  0.394  0.785  0.142- 254 0.93  23 1.37  27 1.39
  26  0.344  0.813  0.218- 255 0.93  28 1.38  24 1.40
  27  0.410  0.779  0.187- 256 0.93  28 1.38  25 1.39
  28  0.386  0.793  0.226-  27 1.38  26 1.38  56 1.49
  29  0.183  0.522  0.085- 382 1.24 381 1.27  30 1.49 365 2.63
  30  0.193  0.547  0.134-  32 1.37  31 1.39  29 1.49
  31  0.181  0.508  0.172- 257 0.93  30 1.39  33 1.40
  32  0.215  0.608  0.142- 258 0.93  30 1.37  34 1.39
  33  0.187  0.531  0.218- 259 0.93  35 1.38  31 1.40
  34  0.221  0.631  0.187- 260 0.93  35 1.38  32 1.39
  35  0.206  0.592  0.226-  34 1.38  33 1.38  49 1.49
  36  0.478  0.661  0.085- 384 1.24 383 1.27  37 1.49 366 2.63
  37  0.453  0.647  0.134-  39 1.37  38 1.39  36 1.49
  38  0.492  0.673  0.172- 261 0.93  37 1.39  40 1.40
  39  0.392  0.606  0.142- 262 0.93  37 1.37  41 1.39
  40  0.469  0.656  0.218- 263 0.93  42 1.38  38 1.40
  41  0.369  0.590  0.187- 264 0.93  42 1.38  39 1.39
  42  0.408  0.614  0.226-  41 1.38  40 1.38  63 1.49
  43  0.183  0.661  0.415- 386 1.24 385 1.27  44 1.49 367 2.63
  44  0.193  0.647  0.366-  46 1.37  45 1.39  43 1.49
  45  0.181  0.673  0.328- 265 0.93  44 1.39  47 1.40
  46  0.215  0.606  0.358- 266 0.93  44 1.37  48 1.39
  47  0.187  0.656  0.282- 267 0.93  49 1.38  45 1.40
  48  0.221  0.590  0.313- 268 0.93  49 1.38  46 1.39
  49  0.206  0.614  0.274-  48 1.38  47 1.38  35 1.49
  50  0.478  0.817  0.415- 388 1.24 387 1.27  51 1.49 368 2.63
  51  0.453  0.807  0.366-  53 1.37  52 1.39  50 1.49
  52  0.492  0.819  0.328- 269 0.93  51 1.39  54 1.40
  53  0.392  0.785  0.358- 270 0.93  51 1.37  55 1.39
  54  0.469  0.813  0.282- 271 0.93  56 1.38  52 1.40
  55  0.369  0.779  0.313- 272 0.93  56 1.38  53 1.39
  56  0.408  0.793  0.274-  55 1.38  54 1.38  28 1.49
  57  0.339  0.522  0.415- 390 1.24 389 1.27  58 1.49 369 2.63
  58  0.353  0.547  0.366-  60 1.37  59 1.39  57 1.49
  59  0.327  0.508  0.328- 273 0.93  58 1.39  61 1.40
  60  0.394  0.608  0.358- 274 0.93  58 1.37  62 1.39
[...]
 347  0.467  0.848  0.000- 203 0.93
 348  0.505  0.957  0.000- 204 0.93
 349  0.381  0.848  0.500- 209 0.93
 350  0.452  0.957  0.500- 210 0.93
 351  0.467  0.619  0.500- 215 0.93
 352  0.505  0.548  0.500- 216 0.93
 353  0.152  0.533  0.500- 221 0.93
 354  0.043  0.495  0.500- 222 0.93
 355  0.619  0.152  0.500- 227 0.93
 356  0.548  0.043  0.500- 228 0.93
 357  0.533  0.381  0.500- 233 0.93
 358  0.495  0.452  0.500- 234 0.93
 359  0.848  0.467  0.500- 239 0.93
 360  0.957  0.505  0.500- 240 0.93
 361  0.688  0.163  0.000- 443 2.21 424 2.25 373 2.26 403 2.26 422 2.31 404 2.32 374 2.32 441 2.36
                           169 2.62 106 2.63   1 2.63 202 2.64
 362  0.837  0.525  0.000- 435 2.21 428 2.25 375 2.26 405 2.26 426 2.31 406 2.32 376 2.32 433 2.36
                           175 2.62 113 2.63   8 2.63 190 2.64
 363  0.475  0.312  0.000- 439 2.21 432 2.25 377 2.26 407 2.26 430 2.31 408 2.32 378 2.32 437 2.36
                           181 2.62 120 2.63  15 2.63 196 2.64
 364  0.312  0.837  0.000- 431 2.21 436 2.25 379 2.26 397 2.26 434 2.31 398 2.32 380 2.32 429 2.36
                           187 2.62  85 2.63  22 2.63 184 2.64
 365  0.163  0.475  0.000- 423 2.21 440 2.25 381 2.26 399 2.26 438 2.31 400 2.32 382 2.32 421 2.36
                           193 2.62  92 2.63  29 2.63 172 2.64
 366  0.525  0.688  0.000- 427 2.21 444 2.25 383 2.26 401 2.26 442 2.31 402 2.32 384 2.32 425 2.36
                           199 2.62  99 2.63  36 2.63 178 2.64
 367  0.163  0.688  0.500- 467 2.21 448 2.25 385 2.26 415 2.26 446 2.31 416 2.32 386 2.32 465 2.36
                           205 2.62 148 2.63  43 2.63 238 2.64
 368  0.525  0.837  0.500- 459 2.21 452 2.25 387 2.26 417 2.26 450 2.31 418 2.32 388 2.32 457 2.36
                           211 2.62 155 2.63  50 2.63 226 2.64
 369  0.312  0.475  0.500- 463 2.21 456 2.25 389 2.26 419 2.26 454 2.31 420 2.32 390 2.32 461 2.36
                           217 2.62 162 2.63  57 2.63 232 2.64
 370  0.837  0.312  0.500- 455 2.21 460 2.25 391 2.26 409 2.26 458 2.31 410 2.32 392 2.32 453 2.36
                           223 2.62 127 2.63  64 2.63 220 2.64
 371  0.475  0.163  0.500- 447 2.21 464 2.25 393 2.26 411 2.26 462 2.31 412 2.32 394 2.32 445 2.36
                           229 2.62 134 2.63  71 2.63 208 2.64
 372  0.688  0.525  0.500- 451 2.21 468 2.25 395 2.26 413 2.26 466 2.31 414 2.32 396 2.32 449 2.36
                           235 2.62 141 2.63  78 2.63 214 2.64
 373  0.697  0.162  0.079-   1 1.27 361 2.26
 374  0.636  0.193  0.051-   1 1.24 361 2.32
 375  0.838  0.535  0.079-   8 1.27 362 2.26
 376  0.807  0.443  0.051-   8 1.24 362 2.32
 377  0.465  0.303  0.079-  15 1.27 363 2.26
 378  0.557  0.364  0.051-  15 1.24 363 2.32
 379  0.303  0.838  0.079-  22 1.27 364 2.26
 380  0.364  0.807  0.051-  22 1.24 364 2.32
 381  0.162  0.465  0.079-  29 1.27 365 2.26
 382  0.193  0.557  0.051-  29 1.24 365 2.32
 383  0.535  0.697  0.079-  36 1.27 366 2.26
 384  0.443  0.636  0.051-  36 1.24 366 2.32
 385  0.162  0.697  0.421-  43 1.27 367 2.26
 386  0.193  0.636  0.449-  43 1.24 367 2.32
 387  0.535  0.838  0.421-  50 1.27 368 2.26
 388  0.443  0.807  0.449-  50 1.24 368 2.32
 389  0.303  0.465  0.421-  57 1.27 369 2.26
 390  0.364  0.557  0.449-  57 1.24 369 2.32
 391  0.838  0.303  0.421-  64 1.27 370 2.26
 392  0.807  0.364  0.449-  64 1.24 370 2.32
 393  0.465  0.162  0.421-  71 1.27 371 2.26
 394  0.557  0.193  0.449-  71 1.24 371 2.32
 395  0.697  0.535  0.421-  78 1.27 372 2.26
 396  0.636  0.443  0.449-  78 1.24 372 2.32
 397  0.303  0.838  0.921-  85 1.27 364 2.26
 398  0.364  0.807  0.949-  85 1.24 364 2.32
 399  0.162  0.465  0.921-  92 1.27 365 2.26
 400  0.193  0.557  0.949-  92 1.24 365 2.32
 401  0.535  0.697  0.921-  99 1.27 366 2.26
 402  0.443  0.636  0.949-  99 1.24 366 2.32
 403  0.697  0.162  0.921- 106 1.27 361 2.26
 404  0.636  0.193  0.949- 106 1.24 361 2.32
 405  0.838  0.535  0.921- 113 1.27 362 2.26
 406  0.807  0.443  0.949- 113 1.24 362 2.32
 407  0.465  0.303  0.921- 120 1.27 363 2.26
 408  0.557  0.364  0.949- 120 1.24 363 2.32
 409  0.838  0.303  0.579- 127 1.27 370 2.26
 410  0.807  0.364  0.551- 127 1.24 370 2.32
 411  0.465  0.162  0.579- 134 1.27 371 2.26
 412  0.557  0.193  0.551- 134 1.24 371 2.32
 413  0.697  0.535  0.579- 141 1.27 372 2.26
 414  0.636  0.443  0.551- 141 1.24 372 2.32
[...]
     0.000000000  0.000000000 28.446400000     0.000000000 -0.000000000  0.035153833

  length of vectors
    25.098000000 25.098000000 28.446400000     0.046007671  0.046007671  0.035153833

 FORCES acting on ions
    electron-ion (+dipol)            ewald-force                    non-local-force                 convergence-correction
   -.701E+02 0.748E+02 -.177E+03   0.687E+02 -.739E+02 0.184E+03   0.152E+01 -.850E+00 -.454E+01   0.294E-03 0.558E-03 -.260E-02
   -.770E+02 0.110E+03 -.621E+02   0.773E+02 -.111E+03 0.620E+02   0.424E+00 -.852E-01 -.357E+00   0.414E-03 0.203E-03 -.167E-02
   -.260E+03 0.170E+03 -.914E+02   0.256E+03 -.169E+03 0.925E+02   -.427E+01 0.129E+01 0.821E+00   0.328E-03 0.900E-04 -.871E-03
   0.113E+03 0.710E+02 0.936E+01   -.112E+03 -.716E+02 -.647E+01   0.254E+01 -.995E+00 0.355E+01   0.221E-03 0.289E-03 -.119E-02
   -.211E+03 0.184E+03 -.102E+03   0.209E+03 -.184E+03 0.984E+02   -.209E+01 0.103E+01 -.288E+01   0.359E-03 0.392E-04 -.325E-03
   0.155E+03 0.833E+02 -.160E+02   -.151E+03 -.846E+02 0.143E+02   0.346E+01 -.124E+01 -.271E+00   -.965E-04 0.179E-03 -.667E-03
   -.519E+01 0.125E+03 -.472E+02   0.479E+01 -.125E+03 0.480E+02   -.155E+00 -.234E+00 0.775E+00   0.543E-04 0.800E-04 -.218E-03
   -.297E+02 -.981E+02 -.177E+03   0.297E+02 0.964E+02 0.184E+03   -.220E-01 0.174E+01 -.454E+01   -.630E-03 -.240E-04 -.260E-02
   -.572E+02 -.122E+03 -.621E+02   0.571E+02 0.122E+03 0.620E+02   -.138E+00 0.410E+00 -.357E+00   -.383E-03 0.256E-03 -.167E-02
   -.177E+02 -.310E+03 -.914E+02   0.185E+02 0.307E+03 0.925E+02   0.102E+01 -.434E+01 0.821E+00   -.242E-03 0.239E-03 -.871E-03
   -.118E+03 0.627E+02 0.936E+01   0.118E+03 -.614E+02 -.647E+01   -.407E+00 0.270E+01 0.355E+01   -.361E-03 0.471E-04 -.119E-02
   -.543E+02 -.274E+03 -.102E+03   0.545E+02 0.273E+03 0.984E+02   0.155E+00 -.232E+01 -.288E+01   -.213E-03 0.291E-03 -.325E-03
   -.149E+03 0.922E+02 -.160E+02   0.149E+03 -.886E+02 0.143E+02   -.653E+00 0.362E+01 -.271E+00   -.107E-03 -.173E-03 -.667E-03
   -.106E+03 -.671E+02 -.472E+02   0.106E+03 0.666E+02 0.480E+02   0.281E+00 -.173E-01 0.775E+00   -.964E-04 0.707E-05 -.218E-03
   0.998E+02 0.233E+02 -.177E+03   -.983E+02 -.225E+02 0.184E+03   -.149E+01 -.888E+00 -.454E+01   0.336E-03 -.534E-03 -.260E-02
   0.134E+03 0.114E+02 -.621E+02   -.134E+03 -.116E+02 0.620E+02   -.286E+00 -.324E+00 -.357E+00   -.307E-04 -.460E-03 -.167E-02
   0.277E+03 0.140E+03 -.914E+02   -.275E+03 -.137E+03 0.925E+02   0.325E+01 0.306E+01 0.821E+00   -.859E-04 -.329E-03 -.871E-03
   0.479E+01 -.134E+03 0.936E+01   -.589E+01 0.133E+03 -.647E+01   -.213E+01 -.170E+01 0.355E+01   0.139E-03 -.336E-03 -.119E-02
   0.265E+03 0.903E+02 -.102E+03   -.264E+03 -.893E+02 0.984E+02   0.193E+01 0.129E+01 -.288E+01   -.146E-03 -.330E-03 -.325E-03
   -.517E+01 -.175E+03 -.160E+02   0.235E+01 0.173E+03 0.143E+02   -.281E+01 -.238E+01 -.271E+00   0.204E-03 -.614E-05 -.667E-03
   0.111E+03 -.581E+02 -.472E+02   -.111E+03 0.583E+02 0.480E+02   -.125E+00 0.252E+00 0.775E+00   0.421E-04 -.870E-04 -.218E-03
   0.701E+02 -.748E+02 -.177E+03   -.687E+02 0.739E+02 0.184E+03   -.152E+01 0.850E+00 -.454E+01   -.294E-03 -.558E-03 -.260E-02
   0.770E+02 -.110E+03 -.621E+02   -.773E+02 0.111E+03 0.620E+02   -.424E+00 0.852E-01 -.357E+00   -.414E-03 -.203E-03 -.167E-02
   0.260E+03 -.170E+03 -.914E+02   -.256E+03 0.169E+03 0.925E+02   0.427E+01 -.129E+01 0.821E+00   -.328E-03 -.900E-04 -.871E-03
   -.113E+03 -.710E+02 0.936E+01   0.112E+03 0.716E+02 -.647E+01   -.254E+01 0.995E+00 0.355E+01   -.221E-03 -.289E-03 -.119E-02
   0.211E+03 -.184E+03 -.102E+03   -.209E+03 0.184E+03 0.984E+02   0.209E+01 -.103E+01 -.288E+01   -.359E-03 -.392E-04 -.325E-03
   -.155E+03 -.833E+02 -.160E+02   0.151E+03 0.846E+02 0.143E+02   -.346E+01 0.124E+01 -.271E+00   0.965E-04 -.179E-03 -.667E-03
   0.519E+01 -.125E+03 -.472E+02   -.479E+01 0.125E+03 0.480E+02   0.155E+00 0.234E+00 0.775E+00   -.543E-04 -.800E-04 -.218E-03
   0.297E+02 0.981E+02 -.177E+03   -.297E+02 -.964E+02 0.184E+03   0.220E-01 -.174E+01 -.454E+01   0.630E-03 0.240E-04 -.260E-02
   0.572E+02 0.122E+03 -.621E+02   -.571E+02 -.122E+03 0.620E+02   0.138E+00 -.410E+00 -.357E+00   0.383E-03 -.256E-03 -.167E-02
   0.177E+02 0.310E+03 -.914E+02   -.185E+02 -.307E+03 0.925E+02   -.102E+01 0.434E+01 0.821E+00   0.242E-03 -.239E-03 -.871E-03
   0.118E+03 -.627E+02 0.936E+01   -.118E+03 0.614E+02 -.647E+01   0.407E+00 -.270E+01 0.355E+01   0.361E-03 -.471E-04 -.119E-02
   0.543E+02 0.274E+03 -.102E+03   -.545E+02 -.273E+03 0.984E+02   -.155E+00 0.232E+01 -.288E+01   0.213E-03 -.291E-03 -.325E-03
   0.149E+03 -.922E+02 -.160E+02   -.149E+03 0.886E+02 0.143E+02   0.653E+00 -.362E+01 -.271E+00   0.107E-03 0.173E-03 -.667E-03
   0.106E+03 0.671E+02 -.472E+02   -.106E+03 -.666E+02 0.480E+02   -.281E+00 0.173E-01 0.775E+00   0.964E-04 -.707E-05 -.218E-03
   -.998E+02 -.233E+02 -.177E+03   0.983E+02 0.225E+02 0.184E+03   0.149E+01 0.888E+00 -.454E+01   -.336E-03 0.534E-03 -.260E-02
   -.134E+03 -.114E+02 -.621E+02   0.134E+03 0.116E+02 0.620E+02   0.286E+00 0.324E+00 -.357E+00   0.307E-04 0.460E-03 -.167E-02
   -.277E+03 -.140E+03 -.914E+02   0.275E+03 0.137E+03 0.925E+02   -.325E+01 -.306E+01 0.821E+00   0.859E-04 0.329E-03 -.871E-03
   -.479E+01 0.134E+03 0.936E+01   0.589E+01 -.133E+03 -.647E+01   0.213E+01 0.170E+01 0.355E+01   -.139E-03 0.336E-03 -.119E-02
   -.265E+03 -.903E+02 -.102E+03   0.264E+03 0.893E+02 0.984E+02   -.193E+01 -.129E+01 -.288E+01   0.146E-03 0.330E-03 -.325E-03
   0.517E+01 0.175E+03 -.160E+02   -.235E+01 -.173E+03 0.143E+02   0.281E+01 0.238E+01 -.271E+00   -.204E-03 0.614E-05 -.667E-03
   -.111E+03 0.581E+02 -.472E+02   0.111E+03 -.583E+02 0.480E+02   0.125E+00 -.252E+00 0.775E+00   -.421E-04 0.870E-04 -.218E-03
   0.998E+02 -.233E+02 0.177E+03   -.983E+02 0.225E+02 -.184E+03   -.149E+01 0.888E+00 0.454E+01   0.336E-03 0.534E-03 0.260E-02
   0.134E+03 -.114E+02 0.621E+02   -.134E+03 0.116E+02 -.620E+02   -.286E+00 0.324E+00 0.357E+00   -.307E-04 0.460E-03 0.167E-02
   0.277E+03 -.140E+03 0.914E+02   -.275E+03 0.137E+03 -.925E+02   0.325E+01 -.306E+01 -.821E+00   -.859E-04 0.329E-03 0.871E-03
   0.479E+01 0.134E+03 -.936E+01   -.589E+01 -.133E+03 0.647E+01   -.213E+01 0.170E+01 -.355E+01   0.139E-03 0.336E-03 0.119E-02
   0.265E+03 -.903E+02 0.102E+03   -.264E+03 0.893E+02 -.984E+02   0.193E+01 -.129E+01 0.288E+01   -.146E-03 0.330E-03 0.325E-03
   -.517E+01 0.175E+03 0.160E+02   0.235E+01 -.173E+03 -.143E+02   -.281E+01 0.238E+01 0.271E+00   0.204E-03 0.614E-05 0.667E-03
   0.111E+03 0.581E+02 0.472E+02   -.111E+03 -.583E+02 -.480E+02   -.125E+00 -.252E+00 -.775E+00   0.421E-04 0.870E-04 0.218E-03
   -.701E+02 -.748E+02 0.177E+03   0.687E+02 0.739E+02 -.184E+03   0.152E+01 0.850E+00 0.454E+01   0.294E-03 -.558E-03 0.260E-02
   -.770E+02 -.110E+03 0.621E+02   0.773E+02 0.111E+03 -.620E+02   0.424E+00 0.852E-01 0.357E+00   0.414E-03 -.203E-03 0.167E-02
   -.260E+03 -.170E+03 0.914E+02   0.256E+03 0.169E+03 -.925E+02   -.427E+01 -.129E+01 -.821E+00   0.328E-03 -.900E-04 0.871E-03
   0.113E+03 -.710E+02 -.936E+01   -.112E+03 0.716E+02 0.647E+01   0.254E+01 0.995E+00 -.355E+01   0.221E-03 -.289E-03 0.119E-02
   -.211E+03 -.184E+03 0.102E+03   0.209E+03 0.184E+03 -.984E+02   -.209E+01 -.103E+01 0.288E+01   0.359E-03 -.392E-04 0.325E-03
   0.155E+03 -.833E+02 0.160E+02   -.151E+03 0.846E+02 -.143E+02   0.346E+01 0.124E+01 0.271E+00   -.965E-04 -.179E-03 0.667E-03
   -.519E+01 -.125E+03 0.472E+02   0.479E+01 0.125E+03 -.480E+02   -.155E+00 0.234E+00 -.775E+00   0.543E-04 -.800E-04 0.218E-03
   -.297E+02 0.981E+02 0.177E+03   0.297E+02 -.964E+02 -.184E+03   -.220E-01 -.174E+01 0.454E+01   -.630E-03 0.240E-04 0.260E-02
   -.572E+02 0.122E+03 0.621E+02   0.571E+02 -.122E+03 -.620E+02   -.138E+00 -.410E+00 0.357E+00   -.383E-03 -.256E-03 0.167E-02
   -.177E+02 0.310E+03 0.914E+02   0.185E+02 -.307E+03 -.925E+02   0.102E+01 0.434E+01 -.821E+00   -.242E-03 -.239E-03 0.871E-03
   -.118E+03 -.627E+02 -.936E+01   0.118E+03 0.614E+02 0.647E+01   -.407E+00 -.270E+01 -.355E+01   -.361E-03 -.472E-04 0.119E-02
[...]
   0.236E+02 0.102E+03 -.106E-05   0.137E+02 -.132E+03 0.356E-12   -.363E+02 0.292E+02 0.106E-21   0.420E-02 0.239E-02 -.114E-10
   -.426E+02 0.423E+02 0.350E-06   0.332E+02 -.924E+02 0.672E-12   0.915E+01 0.481E+02 -.265E-22   -.315E-02 -.127E-02 -.565E-10
   -.409E+03 0.450E+03 -.852E-06   0.412E+03 -.454E+03 0.304E-12   -.274E+01 0.320E+01 0.529E-22   0.185E-02 -.409E-02 0.626E-10
   -.186E+03 -.579E+03 -.341E-06   0.187E+03 0.584E+03 0.244E-12   -.140E+01 -.398E+01 -.265E-22   0.262E-02 0.365E-02 -.182E-10
   0.595E+03 0.129E+03 0.119E-05   -.600E+03 -.130E+03 0.160E-12   0.414E+01 0.772E+00 -.106E-21   -.447E-02 0.440E-03 -.171E-10
   0.409E+03 -.450E+03 0.852E-06   -.412E+03 0.454E+03 0.269E-12   0.274E+01 -.320E+01 0.695E-22   -.185E-02 0.409E-02 -.625E-10
   0.186E+03 0.579E+03 0.341E-06   -.187E+03 -.584E+03 0.195E-12   0.140E+01 0.398E+01 0.794E-22   -.262E-02 -.365E-02 0.183E-10
   -.595E+03 -.129E+03 -.119E-05   0.600E+03 0.130E+03 0.240E-12   -.414E+01 -.772E+00 -.159E-21   0.447E-02 -.440E-03 0.171E-10
   0.595E+03 -.129E+03 -.848E-06   -.600E+03 0.130E+03 0.202E-12   0.414E+01 -.772E+00 0.529E-22   -.447E-02 -.440E-03 0.625E-10
   -.409E+03 -.450E+03 -.339E-06   0.412E+03 0.454E+03 0.284E-12   -.274E+01 -.320E+01 0.000E+00   0.185E-02 0.409E-02 -.181E-10
   -.186E+03 0.579E+03 0.118E-05   0.187E+03 -.584E+03 0.177E-12   -.140E+01 0.398E+01 -.265E-22   0.262E-02 -.365E-02 -.170E-10
   -.595E+03 0.129E+03 0.848E-06   0.600E+03 -.130E+03 0.236E-12   -.414E+01 0.772E+00 0.146E-21   0.447E-02 0.440E-03 -.625E-10
   0.409E+03 0.450E+03 0.339E-06   -.412E+03 -.454E+03 0.335E-12   0.274E+01 0.320E+01 -.106E-21   -.185E-02 -.409E-02 0.182E-10
   0.186E+03 -.579E+03 -.118E-05   -.187E+03 0.584E+03 0.279E-12   0.140E+01 -.398E+01 0.265E-22   -.262E-02 0.365E-02 0.171E-10
   0.957E-08 0.154E-07 -.304E-10   -.333E-11 0.227E-12 0.681E-12   0.293E-13 -.355E-13 0.213E-13   -.947E-11 -.123E-10 0.246E-11

 POSITION                                       TOTAL-FORCE (eV/Angst)
     14.29319      3.96695      2.42904         0.049149      0.053140      1.565365
     13.79888      4.20365      3.81893         0.791374     -0.212494     -0.496897
     14.62209      3.94282      4.90473        -7.518439      2.205554      1.927852
     12.52390      4.66879      4.03654         3.752939     -1.559421      6.436345
     14.12013      4.07323      6.20075        -3.514309      1.601928     -6.817554
     12.04077      4.81007      5.33000         6.825996     -2.552410     -1.959403
     12.82382      4.48838      6.41665        -0.548949     -0.061170      1.594575
     14.51593     10.39479      2.42904        -0.070595      0.015994      1.565365
     14.55809      9.84836      3.81893        -0.211662      0.791597     -0.496897
     14.37237     10.69170      4.90473         1.849154     -7.613937      1.927852
     14.79276      8.51162      4.03654        -0.525971      4.029851      6.436345
     14.51041     10.19178      6.20075         0.369844     -3.844445     -6.817554
     14.91198      8.02258      5.33000        -1.202546      7.187691     -1.959403
     14.79904      8.86157      6.41665         0.327449     -0.444819      1.594575
      8.83788      7.37377      2.42904         0.021446     -0.069135      1.565365
      9.29002      7.68350      3.81893        -0.579712     -0.579103     -0.496897
      8.65254      7.10099      4.90473         5.669286      5.408382      1.927852
     10.33034      8.55509      4.03654        -3.226967     -2.470430      6.436345
      9.01646      7.47049      6.20075         3.144465      2.242517     -6.817554
     10.69426      8.90286      5.33000        -5.623450     -4.635281     -1.959403
     10.02414      8.38556      6.41665         0.221500      0.505989      1.594575
     -1.74419     17.76856      2.42904        -0.049149     -0.053140      1.565365
     -1.24988     17.53186      3.81893        -0.791374      0.212494     -0.496897
     -2.07309     17.79268      4.90473         7.518439     -2.205554      1.927852
      0.02510     17.06672      4.03654        -3.752939      1.559421      6.436345
     -1.57113     17.66227      6.20075         3.514309     -1.601928     -6.817554
      0.50823     16.92544      5.33000        -6.825996      2.552410     -1.959403
     -0.27482     17.24712      6.41665         0.548949      0.061170      1.594575
     -1.96693     11.34072      2.42904         0.070595     -0.015994      1.565365
     -2.00909     11.88715      3.81893         0.211662     -0.791597     -0.496897
     -1.82337     11.04381      4.90473        -1.849154      7.613937      1.927852
     -2.24376     13.22388      4.03654         0.525971     -4.029851      6.436345
     -1.96141     11.54373      6.20075        -0.369844      3.844445     -6.817554
     -2.36298     13.71293      5.33000         1.202546     -7.187691     -1.959403
     -2.25004     12.87394      6.41665        -0.327449      0.444819      1.594575
      3.71112     14.36174      2.42904        -0.021446      0.069135      1.565365
      3.25898     14.05200      3.81893         0.579712      0.579103     -0.496897
      3.89646     14.63452      4.90473        -5.669286     -5.408382      1.927852
      2.21866     13.18041      4.03654         3.226967      2.470430      6.436345
      3.53254     14.26501      6.20075        -3.144465     -2.242517     -6.817554
      1.85474     12.83264      5.33000         5.623450      4.635281     -1.959403
      2.52486     13.34995      6.41665        -0.221500     -0.505989      1.594575
     -3.71112     14.36174     11.79416         0.021446      0.069135     -1.565365
     -3.25898     14.05200     10.40427        -0.579712      0.579103      0.496897
     -3.89646     14.63452      9.31847         5.669286     -5.408382     -1.927852
     -2.21866     13.18041     10.18666        -3.226967      2.470430     -6.436345
     -3.53254     14.26501      8.02245         3.144465     -2.242517      6.817554
     -1.85474     12.83264      8.89320        -5.623450      4.635281      1.959403
     -2.52486     13.34995      7.80655         0.221500     -0.505989     -1.594575
      1.74419     17.76856     11.79416         0.049149     -0.053140     -1.565365
      1.24988     17.53186     10.40427         0.791374      0.212494      0.496897
      2.07309     17.79268      9.31847        -7.518439     -2.205554     -1.927852
     -0.02510     17.06672     10.18666         3.752939      1.559421     -6.436345
      1.57113     17.66227      8.02245        -3.514309     -1.601928      6.817554
     -0.50823     16.92544      8.89320         6.825996      2.552410      1.959403
      0.27482     17.24712      7.80655        -0.548949      0.061170     -1.594575
      1.96693     11.34072     11.79416        -0.070595     -0.015994     -1.565365
      2.00909     11.88715     10.40427        -0.211662     -0.791597      0.496897
      1.82337     11.04381      9.31847         1.849154      7.613937     -1.927852
      2.24376     13.22388     10.18666        -0.525971     -4.029851     -6.436345
[...]
     12.48738     12.84634     14.22320        -0.690756      1.442581     -0.000000
     -5.74179     13.09108     14.22320         0.992894     -1.420980     -0.000000
     12.80450     10.69126     14.22320        -0.249535     -1.923963     -0.000000
     19.48960      6.58977      0.00000         0.734029     -0.879580     -0.000000
      9.64629     13.58360      0.00000         0.394724      1.075477     -0.000000
      8.51111      1.56213      0.00000        -1.128753     -0.195898     -0.000000
     -6.94060     15.14574      0.00000        -0.734029      0.879580     -0.000000
      2.90271      8.15190      0.00000        -0.394724     -1.075477     -0.000000
      4.03789     20.17337      0.00000         1.128753      0.195898     -0.000000
     -4.03789     20.17337     14.22320        -1.128753      0.195898     -0.000000
      6.94060     15.14574     14.22320         0.734029      0.879580     -0.000000
     -2.90271      8.15190     14.22320         0.394724     -1.075477     -0.000000
     16.58689      1.56213     14.22320         1.128753     -0.195898     -0.000000
      5.60840      6.58977     14.22320        -0.734029     -0.879580     -0.000000
     15.45171     13.58360     14.22320        -0.394724      1.075477     -0.000000
    total drift:                                0.000000      0.000000     -0.000000

  FREE ENERGIE OF THE ION-ELECTRON SYSTEM (eV)
  free  energy   TOTEN  =     -3260.36698398 eV

  energy  without entropy=    -3259.74957576  energy(sigma->0) =    -3260.05827987